benchmarks/bfuzz0/31792251213232174988168201162765614586.smt2
(set-logic QF_FP)
(declare-const x0 (_ FloatingPoint 8 24))
(declare-const x1 (_ FloatingPoint 8 24))
(declare-const x2 (_ FloatingPoint 8 24))
(declare-const x3 (_ FloatingPoint 8 24))
(declare-const x4 (_ FloatingPoint 8 24))
(declare-const x5 (_ FloatingPoint 8 24))
(declare-const x6 (_ FloatingPoint 8 24))
(declare-const x7 (_ FloatingPoint 8 24))
(declare-const x8 (_ FloatingPoint 8 24))
(assert (fp.leq (fp.neg (fp.div RNE (fp.add RNE (fp.neg x7) (fp.neg x4)) (fp.neg (fp.mul RNE x2 x3)))) (fp.neg (fp.sub RNE (fp.neg (fp.neg x5)) (fp.neg (fp.div RNE x8 x7))))))
(check-sat)
