db/data/31792251213232174988168201162765614586.z3.out
sat
-------------------
35.641631242
